
Gurobi 9.1.2 (linux64) logging started Wed Aug  9 22:40:25 2023

Changed value of parameter LogFile to max-ls_r=('2', '7').log
   Prev:   Default: 
Changed value of parameter MIPFocus to 1
   Prev: 0  Min: 0  Max: 3  Default: 0
Changed value of parameter Threads to 32
   Prev: 0  Min: 0  Max: 1024  Default: 0
Changed value of parameter TimeLimit to 3600.0
   Prev: inf  Min: 0.0  Max: inf  Default: inf
Warning: variable name "X[('6', '6'),('7', '6')]" has a space
Warning: constraint name "flow-constr-t0-v('6', '3')" has a space
Warning: to let Gurobi read it back, use rlp format
Gurobi Optimizer version 9.1.2 build v9.1.2rc0 (linux64)
Thread count: 16 physical cores, 32 logical processors, using up to 32 threads
Optimize a model with 2939 rows, 2688 columns and 10276 nonzeros
Model fingerprint: 0x1dbf0bea
Variable types: 256 continuous, 2432 integer (2432 binary)
Coefficient statistics:
  Matrix range     [1e+00, 7e+04]
  Objective range  [2e-01, 2e-01]
  Bounds range     [1e+00, 3e+04]
  RHS range        [1e+00, 7e+04]
Presolve removed 351 rows and 356 columns
Presolve time: 0.04s
Presolved: 2588 rows, 2332 columns, 17629 nonzeros
Variable types: 256 continuous, 2076 integer (2076 binary)
Found heuristic solution: objective 698.0000000

Root relaxation: objective 6.400000e+01, 138 iterations, 0.00 seconds

    Nodes    |    Current Node    |     Objective Bounds      |     Work
 Expl Unexpl |  Obj  Depth IntInf | Incumbent    BestBd   Gap | It/Node Time

     0     0   64.00000    0   22  698.00000   64.00000  90.8%     -    0s
H    0     0                     690.0000000   64.00000  90.7%     -    0s
     0     0   64.00000    0   62  690.00000   64.00000  90.7%     -    0s
H    0     0                     344.5000000   64.00000  81.4%     -    0s
H    0     0                     205.0000000   64.00000  68.8%     -    0s
     0     0   64.00000    0   61  205.00000   64.00000  68.8%     -    0s
H    0     0                      85.4375000   64.00000  25.1%     -    0s
     0     0   64.00000    0   22   85.43750   64.00000  25.1%     -    0s
H    0     0                      74.0000000   64.00000  13.5%     -    0s
     0     0   64.00000    0   30   74.00000   64.00000  13.5%     -    0s
     0     0   64.00000    0   14   74.00000   64.00000  13.5%     -    0s
H    0     0                      71.5000000   64.00000  10.5%     -    0s
     0     0   64.00000    0   16   71.50000   64.00000  10.5%     -    0s
     0     0   64.00000    0   14   71.50000   64.00000  10.5%     -    0s
H    0     0                      71.1666667   64.00000  10.1%     -    0s
     0     0   64.00000    0   20   71.16667   64.00000  10.1%     -    0s
     0     0   64.00000    0   14   71.16667   64.00000  10.1%     -    0s
H    0     0                      70.0500000   64.00000  8.64%     -    1s
     0     2   64.00000    0   12   70.05000   64.00000  8.64%     -    1s
H    2     4                      69.5000000   64.00000  7.91%   132    1s
H   32    60                      69.2500000   64.00000  7.58%  14.5    1s
H   40    60                      68.5000000   64.00000  6.57%  12.7    1s
H   95   124                      68.2500000   64.00000  6.23%   9.3    3s
H   99   124                      68.0000000   64.00000  5.88%   9.0    3s
H  105   124                      67.7500000   64.00000  5.54%   8.6    3s
H  179   186                      67.5000000   64.00000  5.19%   6.0    3s
H  253   276                      67.2500000   64.00000  4.83%   5.1    5s
H  254   276                      66.2500000   64.00000  3.40%   5.0    5s
H  315   745                      66.0000000   64.00000  3.03%   4.8    6s
H 2959  2264                      65.9999990   64.00000  3.03%   8.8   10s
  3119  2362   64.00000   20   27   66.00000   64.00000  3.03%   9.3   16s
  3575  3417   64.00000   25   29   66.00000   64.00000  3.03%   9.4   21s
H 3921  3191                      65.0833333   64.00000  1.66%   9.3   21s
H 4600  7423                      65.0000000   64.00000  1.54%   9.3   22s
H 5255  7104                      64.5000000   64.00000  0.78%   9.5   22s
H10437  4720                      64.4000000   64.00000  0.62%  10.5   23s
H10444  1845                      64.0000000   64.00000  0.00%  10.5   23s

Cutting planes:
  Learned: 2
  Cover: 40
  Implied bound: 53
  Clique: 58
  MIR: 65
  Flow cover: 81
  GUB cover: 2
  RLT: 11
  Relax-and-lift: 155

Explored 10611 nodes (116449 simplex iterations) in 23.89 seconds
Thread count was 32 (of 32 available processors)

Solution count 10: 64 64.4 64.5 ... 67.5

Optimal solution found (tolerance 1.00e-04)
Best objective 6.400000000000e+01, best bound 6.400000000000e+01, gap 0.0000%
